data; 
set TYPE:= 1	2	3;
set POLLUTANT:= Sulfur 	Dust ;
param S:=	1	24000	2	36000	3	28000;
param f1:=	1	1100	2	3500	3	1300;
param f2:=	1	1.7		2	3.2		3	2.4;
param e: 		Sulfur   	Dust := 
		1		1100		1.7	
		2		3500		3.2
		3		1300		2.4;
	
param E:=	Sulfur	2500	Dust	2.8;
param Z1:=	32173.91304;
param Z2:=	1100;
param Z3:=	1.7;

param w1:=	0.3;
param w2:=	0.3;
param w3:=	0.4;

